# Solution for model count
# Objective value = 15
z#1 0
z#2 0
z#3 0
z#4 0
z#5 0
z#6 0
z#7 0
z#8 1
z#9 0
z#10 0
z#11 0
z#12 0
z#13 0
z#14 0
z#15 1
z#16 0
z#17 1
z#18 0
z#19 0
z#20 0
z#21 0
z#22 0
z#23 0
z#24 0
z#25 0
z#26 0
z#27 0
z#28 1
z#29 0
z#30 0
z#31 0
z#32 0
z#33 0
z#34 0
z#35 0
z#36 0
z#37 0
z#38 0
z#39 0
z#40 0
z#41 0
z#42 0
z#43 1
z#44 1
z#45 0
z#46 0
z#47 0
z#48 0
z#49 0
z#50 0
z#51 1
z#52 0
z#53 0
z#54 0
z#55 0
z#56 0
z#57 0
z#58 0
z#59 0
z#60 0
z#61 0
z#62 0
z#63 0
z#64 0
z#65 1
z#66 0
z#67 0
z#68 0
z#69 0
z#70 0
z#71 0
z#72 0
z#73 1
z#74 0
z#75 0
z#76 0
z#77 0
z#78 0
z#79 0
z#80 0
z#81 0
z#82 1
z#83 0
z#84 0
z#85 1
z#86 0
z#87 0
z#88 0
z#89 0
z#90 0
z#91 0
z#92 1
z#93 0
z#94 0
z#95 0
z#96 1
z#97 0
z#98 0
z#99 0
z#100 1
z#101 0
z#102 0
z#103 0
z#104 0
z#105 0
z#106 0
z#107 0
z#108 1
z#109 0
z#110 0
z#111 0
z#112 0
z#113 0
z#114 0
z#115 0
z#116 0
z#117 0
z#118 0
z#119 0
z#120 0
x#120 0
x#119 0
x#118 0
x#117 0
x#116 0
x#115 0
x#114 0
x#113 0
x#112 0
x#111 0
x#110 0
x#109 0
x#108 1409
x#107 0
x#106 0
x#105 0
x#104 0
x#103 0
x#102 0
x#101 0
x#100 729
x#99 0
x#98 0
x#97 0
x#96 757
x#95 0
x#94 0
x#93 0
x#92 86
x#91 0
x#90 0
x#89 0
x#88 0
x#87 0
x#86 0
x#85 264
x#84 0
x#83 0
x#82 641
x#81 0
x#80 0
x#79 0
x#78 0
x#77 0
x#76 0
x#75 0
x#74 0
x#73 43
x#72 0
x#71 0
x#70 0
x#69 0
x#68 0
x#67 0
x#66 0
x#65 787
x#64 0
x#63 0
x#62 0
x#61 0
x#60 0
x#59 0
x#58 0
x#57 0
x#56 0
x#55 0
x#54 0
x#53 0
x#52 0
x#51 399
x#50 0
x#49 0
x#48 0
x#47 0
x#46 0
x#45 0
x#44 676
x#43 653
x#42 0
x#41 0
x#40 0
x#39 0
x#38 0
x#37 0
x#36 0
x#35 0
x#34 0
x#33 0
x#32 0
x#31 0
x#30 0
x#29 0
x#28 907
x#27 0
x#26 0
x#25 0
x#24 0
x#23 0
x#22 0
x#21 0
x#20 0
x#19 0
x#18 0
x#17 161
x#16 0
x#15 900
x#14 0
x#13 0
x#12 0
x#11 0
x#10 0
x#9 0
x#8 1588
x#7 0
x#6 0
x#5 0
x#4 0
x#3 0
x#2 0
x#1 0
